set FARINE := Farina00 Farina0 Integrale SenCappelli Tumminia;
set OLI := OlioOliva EvoBari EvoToscana;
set QUALITA := Proteine Fibre GrasSat GrasMon;

param QtaFarina := 150;
param QtaOlio := 15;
param: Costo :=
Farina00 0.5
Farina0 0.6
Integrale 0.65
SenCappelli 1
Tumminia 1.3
OlioOliva 2
EvoBari 6
EvoToscana 7;

param Contenuto: Proteine Fibre GrasSat GrasMon :=
Farina00 1 1 0 0
Farina0 4 2 0 0
Integrale 5 7 0.01 0.05
SenCappelli 7 7 0.1 0.1
Tumminia 12 10 0 0.2
OlioOliva 0 0 30 10
EvoBari 0 0 20 50
EvoToscana 0 0 18 45;

param: RequisitiMin RequisitiMax :=
Proteine 2 1000
Fibre 2 1000
GrasSat 0 5
GrasMon 3 1000;

